c This is an instance of the exact track of PACE 2020 Challenge, see https://pacechallenge.org/2020/ 
c TYPE: biology 
c ORIGIN: http://www.genome.jp/kegg/ 
c DESCRIPTION: This is a graph derived from a biological pathway map. The nodes are genes (also representing their associated proteins), enzymes, or chemical compounds, and there is an edge between two nodes if they influence each other (such as a gene modifying the expression of another gene) or take part in a common chemical reaction. This graph is a connected part of the map "nni04010 MAPK signaling pathway - Nipponia nippon (crested ibis)". 
p tdp 102 142
4 32
4 5
4 82
4 27
4 33
4 6
4 13
4 8
4 3
4 2
4 81
32 33
32 95
22 24
22 23
24 23
24 54
24 87
24 25
24 52
24 53
23 76
23 86
23 75
23 85
23 91
23 28
23 78
23 90
23 26
23 25
23 77
10 99
10 9
99 100
14 15
14 57
15 96
15 100
46 56
46 88
46 45
46 80
46 55
56 48
56 61
56 62
56 87
56 57
56 102
8 20
8 7
8 19
20 27
20 21
20 33
20 74
20 18
59 92
59 57
59 27
59 74
59 58
92 58
19 21
19 74
19 33
19 18
19 27
21 34
21 84
21 18
21 40
21 38
21 83
21 37
21 35
21 17
21 36
25 26
25 27
26 28
26 27
26 29
26 30
26 80
26 87
5 93
57 55
57 58
57 89
57 60
57 96
86 62
62 67
62 55
62 68
62 63
62 64
62 69
62 70
62 65
62 66
62 85
62 71
7 31
31 95
31 94
55 61
55 48
55 102
55 87
74 58
48 47
11 12
11 13
12 101
69 72
69 73
72 68
97 98
98 45
98 43
27 50
27 43
27 45
27 41
27 51
6 93
16 17
45 96
43 42
43 44
37 39
39 38
77 79
79 78
42 49
42 41
70 73
3 94
2 1
